%SETS
JOBS     = 1..2;
MACHINES = 1..17;
SPEED    = 1;

time               = array3d(JOBS,MACHINES,1..SPEED,[84, 80, 88, 98, 81, 51, 80, 20, 67, 22, 95, 56, 47, 33, 79, 51, 61, 11, 65, 65, 65, 94, 71, 42, 49, 72, 15, 70, 70, 28, 21, 38, 42, 61]);
energy             = array3d(JOBS,MACHINES,1..SPEED,[43, 44, 41, 37, 44, 60, 44, 81, 51, 80, 38, 57, 62, 71, 45, 60, 54, 89, 52, 52, 52, 39, 49, 65, 61, 48, 86, 49, 49, 75, 81, 68, 65, 54]);
precedence         = array2d(JOBS,MACHINES,[0,2,4,11,15,3,14,1,8,6,9,16,10,12,7,13,5,11,15,7,12,6,14,1,5,3,13,2,9,0,4,10,8,16]);